8166
1, 32, 22, 18, 31, 21, 23, 20, 50, 16, 29, 30, 2, 7, 42, 17, 3, 19, 45, 8, 41, 10, 9, 43, 33, 51, 11, 52, 14, 13, 47, 26, 27, 28, 12, 25, 4, 15, 6, 5, 24, 48, 46, 44, 37, 40, 38, 39, 36, 34, 35, 49
